p cnf 344 999
e 344 1 343 0
a 83 0
e 104 342 4 3 2 106 341 0
a 84 85 0
e 109 340 15 14 13 12 11 10 9 8 7 6 5 326 333 336 339 337 338 334 335 328 332 329 330 331 327 0
a 86 87 88 0
e 116 325 31 30 29 28 27 26 25 24 23 22 21 20 19 18 17 16 122 125 128 131 134 136 139 142 144 146 148 149 324 0
a 89 90 91 0
e 156 323 48 47 46 45 44 43 42 41 40 39 38 37 36 35 34 33 32 159 166 169 172 175 178 181 184 186 189 191 193 195 197 198 322 0
a 92 93 94 0
e 205 321 63 62 61 60 59 58 57 56 55 54 53 52 51 50 49 208 213 216 219 222 225 228 231 234 236 239 241 243 245 247 318 319 320 0
a 95 96 97 0
e 252 317 73 72 71 70 69 68 67 66 65 64 255 259 262 265 268 271 274 276 278 280 314 315 316 0
a 98 99 100 0
e 285 313 79 78 77 76 75 74 288 291 293 296 298 299 312 0
a 101 102 0
e 302 311 82 81 80 305 308 309 310 307 306 303 304 300 301 297 294 295 292 290 289 287 286 281 282 283 284 279 277 275 273 272 270 269 267 266 264 263 261 260 257 258 256 254 253 248 249 250 251 246 244 242 240 237 238 235 233 232 230 229 227 226 224 223 221 220 218 217 215 214 210 212 211 209 207 206 199 200 201 202 203 204 196 194 192 190 187 188 185 183 182 180 179 177 176 174 173 171 170 168 167 161 165 162 163 164 160 158 157 150 151 152 153 154 155 147 145 143 140 141 137 138 135 133 132 130 129 127 126 124 123 118 121 119 120 117 110 111 112 113 114 115 107 108 105 0
344 0
344 -343 -1 0
343 -344 0
1 -344 0
104 342 -343 0
343 -104 0
343 -342 0
-104 -83 -1 0
83 104 0
1 104 0
342 -106 -341 0
106 -342 0
341 -342 0
105 -106 -83 0
83 106 0
106 -105 0
105 -4 -2 -3 0
4 -105 0
2 -105 0
3 -105 0
109 340 -341 0
341 -109 0
341 -340 0
109 -107 -108 0
107 -109 0
108 -109 0
84 -107 -3 -85 0
3 107 0
107 -84 0
85 107 0
-108 -2 -84 -85 0
2 108 0
84 108 0
85 108 0
340 -326 -333 -336 -339 0
326 -340 0
333 -340 0
336 -340 0
339 -340 0
116 325 -326 0
326 -116 0
326 -325 0
116 -110 -111 -112 -113 -114 -115 0
110 -116 0
111 -116 0
112 -116 0
113 -116 0
114 -116 0
115 -116 0
86 88 -110 -10 -87 0
10 110 0
110 -86 0
87 110 0
110 -88 0
88 -111 -9 -86 -87 0
9 111 0
86 111 0
87 111 0
111 -88 0
86 87 -112 -8 -88 0
8 112 0
112 -86 0
112 -87 0
88 112 0
87 -113 -7 -86 -88 0
7 113 0
86 113 0
113 -87 0
88 113 0
86 -114 -6 -87 -88 0
6 114 0
114 -86 0
87 114 0
88 114 0
-115 -5 -86 -87 -88 0
5 115 0
86 115 0
87 115 0
88 115 0
325 -122 -125 -128 -131 -134 -136 -139 -142 -144 -146 -148 -149 -324 0
122 -325 0
125 -325 0
128 -325 0
131 -325 0
134 -325 0
136 -325 0
139 -325 0
142 -325 0
144 -325 0
146 -325 0
148 -325 0
149 -325 0
324 -325 0
118 121 -122 0
122 -118 0
122 -121 0
117 -118 -15 0
15 118 0
118 -117 0
117 10 9 8 7 6 5 0
-10 -117 0
-9 -117 0
-8 -117 0
-7 -117 0
-6 -117 0
-5 -117 0
121 -28 -119 -120 0
28 -121 0
119 -121 0
120 -121 0
17 23 -119 0
119 -17 0
119 -23 0
19 25 -120 0
120 -19 0
120 -25 0
124 21 24 -125 0
125 -124 0
125 -21 0
125 -24 0
123 -124 -14 0
14 124 0
124 -123 0
123 10 9 8 7 6 5 0
-10 -123 0
-9 -123 0
-8 -123 0
-7 -123 0
-6 -123 0
-5 -123 0
127 29 -128 0
128 -127 0
128 -29 0
126 -127 -13 0
13 127 0
127 -126 0
126 10 9 8 7 6 5 0
-10 -126 0
-9 -126 0
-8 -126 0
-7 -126 0
-6 -126 0
-5 -126 0
130 26 -131 0
131 -130 0
131 -26 0
129 -130 -12 0
12 130 0
130 -129 0
129 10 9 8 7 6 5 0
-10 -129 0
-9 -129 0
-8 -129 0
-7 -129 0
-6 -129 0
-5 -129 0
133 22 -134 0
134 -133 0
134 -22 0
132 -133 -11 0
11 133 0
133 -132 0
132 10 9 8 7 6 5 0
-10 -132 0
-9 -132 0
-8 -132 0
-7 -132 0
-6 -132 0
-5 -132 0
135 31 -136 0
136 -135 0
136 -31 0
86 88 -135 -87 0
135 -86 0
87 135 0
135 -88 0
137 138 -139 0
139 -137 0
139 -138 0
88 -137 -86 -87 0
86 137 0
87 137 0
137 -88 0
138 -27 -20 -16 0
27 -138 0
20 -138 0
16 -138 0
140 141 -142 0
142 -140 0
142 -141 0
86 87 -140 -88 0
140 -86 0
140 -87 0
88 140 0
141 -19 -18 0
19 -141 0
18 -141 0
143 30 -144 0
144 -143 0
144 -30 0
87 -143 -86 -88 0
86 143 0
143 -87 0
88 143 0
145 29 -146 0
146 -145 0
146 -29 0
86 -145 -87 -88 0
145 -86 0
87 145 0
88 145 0
147 26 -148 0
148 -147 0
148 -26 0
-147 -86 -87 -88 0
86 147 0
87 147 0
88 147 0
-149 -30 -31 0
30 149 0
31 149 0
156 323 -324 0
324 -156 0
324 -323 0
156 -150 -151 -152 -153 -154 -155 0
150 -156 0
151 -156 0
152 -156 0
153 -156 0
154 -156 0
155 -156 0
89 91 -150 -21 -90 0
21 150 0
150 -89 0
90 150 0
150 -91 0
91 -151 -20 -89 -90 0
20 151 0
89 151 0
90 151 0
151 -91 0
89 90 -152 -19 -91 0
19 152 0
152 -89 0
152 -90 0
91 152 0
90 -153 -18 -89 -91 0
18 153 0
89 153 0
153 -90 0
91 153 0
89 -154 -17 -90 -91 0
17 154 0
154 -89 0
90 154 0
91 154 0
-155 -16 -89 -90 -91 0
16 155 0
89 155 0
90 155 0
91 155 0
323 -159 -166 -169 -172 -175 -178 -181 -184 -186 -189 -191 -193 -195 -197 -198 -322 0
159 -323 0
166 -323 0
169 -323 0
172 -323 0
175 -323 0
178 -323 0
181 -323 0
184 -323 0
186 -323 0
189 -323 0
191 -323 0
193 -323 0
195 -323 0
197 -323 0
198 -323 0
322 -323 0
158 48 -159 0
159 -158 0
159 -48 0
157 -158 -29 0
29 158 0
158 -157 0
157 21 20 19 18 17 16 0
-21 -157 0
-20 -157 0
-19 -157 0
-18 -157 0
-17 -157 0
-16 -157 0
161 165 -166 0
166 -161 0
166 -165 0
160 -161 -28 0
28 161 0
161 -160 0
160 21 20 19 18 17 16 0
-21 -160 0
-20 -160 0
-19 -160 0
-18 -160 0
-17 -160 0
-16 -160 0
165 -45 -162 -163 -164 -36 0
45 -165 0
162 -165 0
163 -165 0
164 -165 0
36 -165 0
32 41 -162 0
162 -32 0
162 -41 0
35 43 -163 0
163 -35 0
163 -43 0
33 40 -164 0
164 -33 0
164 -40 0
168 37 42 -169 0
169 -168 0
169 -37 0
169 -42 0
167 -168 -27 0
27 168 0
168 -167 0
167 21 20 19 18 17 16 0
-21 -167 0
-20 -167 0
-19 -167 0
-18 -167 0
-17 -167 0
-16 -167 0
171 47 -172 0
172 -171 0
172 -47 0
170 -171 -26 0
26 171 0
171 -170 0
170 21 20 19 18 17 16 0
-21 -170 0
-20 -170 0
-19 -170 0
-18 -170 0
-17 -170 0
-16 -170 0
174 46 -175 0
175 -174 0
175 -46 0
173 -174 -25 0
25 174 0
174 -173 0
173 21 20 19 18 17 16 0
-21 -173 0
-20 -173 0
-19 -173 0
-18 -173 0
-17 -173 0
-16 -173 0
177 44 -178 0
178 -177 0
178 -44 0
176 -177 -24 0
24 177 0
177 -176 0
176 21 20 19 18 17 16 0
-21 -176 0
-20 -176 0
-19 -176 0
-18 -176 0
-17 -176 0
-16 -176 0
180 39 -181 0
181 -180 0
181 -39 0
179 -180 -23 0
23 180 0
180 -179 0
179 21 20 19 18 17 16 0
-21 -179 0
-20 -179 0
-19 -179 0
-18 -179 0
-17 -179 0
-16 -179 0
183 37 -184 0
184 -183 0
184 -37 0
182 -183 -22 0
22 183 0
183 -182 0
182 21 20 19 18 17 16 0
-21 -182 0
-20 -182 0
-19 -182 0
-18 -182 0
-17 -182 0
-16 -182 0
185 48 -186 0
186 -185 0
186 -48 0
89 91 -185 -90 0
185 -89 0
90 185 0
185 -91 0
187 188 -189 0
189 -187 0
189 -188 0
91 -187 -89 -90 0
89 187 0
90 187 0
187 -91 0
188 -35 -34 0
35 -188 0
34 -188 0
190 47 -191 0
191 -190 0
191 -47 0
89 90 -190 -91 0
190 -89 0
190 -90 0
91 190 0
192 46 -193 0
193 -192 0
193 -46 0
90 -192 -89 -91 0
89 192 0
192 -90 0
91 192 0
194 44 -195 0
195 -194 0
195 -44 0
89 -194 -90 -91 0
194 -89 0
90 194 0
91 194 0
196 38 -197 0
197 -196 0
197 -38 0
-196 -89 -90 -91 0
89 196 0
90 196 0
91 196 0
-198 -47 -48 0
47 198 0
48 198 0
205 321 -322 0
322 -205 0
322 -321 0
205 -199 -200 -201 -202 -203 -204 0
199 -205 0
200 -205 0
201 -205 0
202 -205 0
203 -205 0
204 -205 0
92 94 -199 -37 -93 0
37 199 0
199 -92 0
93 199 0
199 -94 0
94 -200 -36 -92 -93 0
36 200 0
92 200 0
93 200 0
200 -94 0
92 93 -201 -35 -94 0
35 201 0
201 -92 0
201 -93 0
94 201 0
93 -202 -34 -92 -94 0
34 202 0
92 202 0
202 -93 0
94 202 0
92 -203 -33 -93 -94 0
33 203 0
203 -92 0
93 203 0
94 203 0
-204 -32 -92 -93 -94 0
32 204 0
92 204 0
93 204 0
94 204 0
321 -208 -213 -216 -219 -222 -225 -228 -231 -234 -236 -239 -241 -243 -245 -247 -318 -319 -320 0
208 -321 0
213 -321 0
216 -321 0
219 -321 0
222 -321 0
225 -321 0
228 -321 0
231 -321 0
234 -321 0
236 -321 0
239 -321 0
241 -321 0
243 -321 0
245 -321 0
247 -321 0
318 -321 0
319 -321 0
320 -321 0
207 62 -208 0
208 -207 0
208 -62 0
206 -207 -46 0
46 207 0
207 -206 0
206 37 36 35 34 33 32 0
-37 -206 0
-36 -206 0
-35 -206 0
-34 -206 0
-33 -206 0
-32 -206 0
210 212 -213 0
213 -210 0
213 -212 0
209 -210 -45 0
45 210 0
210 -209 0
209 37 36 35 34 33 32 0
-37 -209 0
-36 -209 0
-35 -209 0
-34 -209 0
-33 -209 0
-32 -209 0
212 -211 -50 0
211 -212 0
50 -212 0
58 53 61 -211 0
211 -58 0
211 -53 0
211 -61 0
215 60 -216 0
216 -215 0
216 -60 0
214 -215 -44 0
44 215 0
215 -214 0
214 37 36 35 34 33 32 0
-37 -214 0
-36 -214 0
-35 -214 0
-34 -214 0
-33 -214 0
-32 -214 0
218 59 -219 0
219 -218 0
219 -59 0
217 -218 -43 0
43 218 0
218 -217 0
217 37 36 35 34 33 32 0
-37 -217 0
-36 -217 0
-35 -217 0
-34 -217 0
-33 -217 0
-32 -217 0
221 56 -222 0
222 -221 0
222 -56 0
220 -221 -42 0
42 221 0
221 -220 0
220 37 36 35 34 33 32 0
-37 -220 0
-36 -220 0
-35 -220 0
-34 -220 0
-33 -220 0
-32 -220 0
224 55 -225 0
225 -224 0
225 -55 0
223 -224 -41 0
41 224 0
224 -223 0
223 37 36 35 34 33 32 0
-37 -223 0
-36 -223 0
-35 -223 0
-34 -223 0
-33 -223 0
-32 -223 0
227 54 -228 0
228 -227 0
228 -54 0
226 -227 -40 0
40 227 0
227 -226 0
226 37 36 35 34 33 32 0
-37 -226 0
-36 -226 0
-35 -226 0
-34 -226 0
-33 -226 0
-32 -226 0
230 51 -231 0
231 -230 0
231 -51 0
229 -230 -39 0
39 230 0
230 -229 0
229 37 36 35 34 33 32 0
-37 -229 0
-36 -229 0
-35 -229 0
-34 -229 0
-33 -229 0
-32 -229 0
233 49 -234 0
234 -233 0
234 -49 0
232 -233 -38 0
38 233 0
233 -232 0
232 37 36 35 34 33 32 0
-37 -232 0
-36 -232 0
-35 -232 0
-34 -232 0
-33 -232 0
-32 -232 0
235 62 -236 0
236 -235 0
236 -62 0
92 94 -235 -93 0
235 -92 0
93 235 0
235 -94 0
237 57 238 -239 0
239 -237 0
239 -57 0
239 -238 0
94 -237 -92 -93 0
92 237 0
93 237 0
237 -94 0
238 -63 -52 0
63 -238 0
52 -238 0
240 60 -241 0
241 -240 0
241 -60 0
92 93 -240 -94 0
240 -92 0
240 -93 0
94 240 0
242 59 -243 0
243 -242 0
243 -59 0
93 -242 -92 -94 0
92 242 0
242 -93 0
94 242 0
244 57 -245 0
245 -244 0
245 -57 0
92 -244 -93 -94 0
244 -92 0
93 244 0
94 244 0
246 56 -247 0
247 -246 0
247 -56 0
-246 -92 -93 -94 0
92 246 0
93 246 0
94 246 0
252 317 -318 0
318 -252 0
318 -317 0
252 -248 -249 -250 -251 0
248 -252 0
249 -252 0
250 -252 0
251 -252 0
95 96 -248 -52 -97 0
52 248 0
248 -95 0
248 -96 0
97 248 0
96 -249 -51 -95 -97 0
51 249 0
95 249 0
249 -96 0
97 249 0
95 -250 -50 -96 -97 0
50 250 0
250 -95 0
96 250 0
97 250 0
-251 -49 -95 -96 -97 0
49 251 0
95 251 0
96 251 0
97 251 0
317 -255 -259 -262 -265 -268 -271 -274 -276 -278 -280 -314 -315 -316 0
255 -317 0
259 -317 0
262 -317 0
265 -317 0
268 -317 0
271 -317 0
274 -317 0
276 -317 0
278 -317 0
280 -317 0
314 -317 0
315 -317 0
316 -317 0
254 72 -255 0
255 -254 0
255 -72 0
253 -254 -59 0
59 254 0
254 -253 0
253 52 51 50 49 0
-52 -253 0
-51 -253 0
-50 -253 0
-49 -253 0
257 258 -259 0
259 -257 0
259 -258 0
256 -257 -58 0
58 257 0
257 -256 0
256 52 51 50 49 0
-52 -256 0
-51 -256 0
-50 -256 0
-49 -256 0
258 -73 -67 0
73 -258 0
67 -258 0
261 71 -262 0
262 -261 0
262 -71 0
260 -261 -57 0
57 261 0
261 -260 0
260 52 51 50 49 0
-52 -260 0
-51 -260 0
-50 -260 0
-49 -260 0
264 70 -265 0
265 -264 0
265 -70 0
263 -264 -56 0
56 264 0
264 -263 0
263 52 51 50 49 0
-52 -263 0
-51 -263 0
-50 -263 0
-49 -263 0
267 66 -268 0
268 -267 0
268 -66 0
266 -267 -55 0
55 267 0
267 -266 0
266 52 51 50 49 0
-52 -266 0
-51 -266 0
-50 -266 0
-49 -266 0
270 65 -271 0
271 -270 0
271 -65 0
269 -270 -54 0
54 270 0
270 -269 0
269 52 51 50 49 0
-52 -269 0
-51 -269 0
-50 -269 0
-49 -269 0
273 64 -274 0
274 -273 0
274 -64 0
272 -273 -53 0
53 273 0
273 -272 0
272 52 51 50 49 0
-52 -272 0
-51 -272 0
-50 -272 0
-49 -272 0
275 72 -276 0
276 -275 0
276 -72 0
96 -275 -95 -97 0
95 275 0
275 -96 0
97 275 0
277 68 69 -278 0
278 -277 0
278 -68 0
278 -69 0
95 -277 -96 -97 0
277 -95 0
96 277 0
97 277 0
279 71 -280 0
280 -279 0
280 -71 0
-279 -95 -96 -97 0
95 279 0
96 279 0
97 279 0
285 313 -314 0
314 -285 0
314 -313 0
285 -281 -282 -283 -284 0
281 -285 0
282 -285 0
283 -285 0
284 -285 0
98 99 -281 -67 -100 0
67 281 0
281 -98 0
281 -99 0
100 281 0
99 -282 -66 -98 -100 0
66 282 0
98 282 0
282 -99 0
100 282 0
98 -283 -65 -99 -100 0
65 283 0
283 -98 0
99 283 0
100 283 0
-284 -64 -98 -99 -100 0
64 284 0
98 284 0
99 284 0
100 284 0
313 -288 -291 -293 -296 -298 -299 -312 0
288 -313 0
291 -313 0
293 -313 0
296 -313 0
298 -313 0
299 -313 0
312 -313 0
287 77 -288 0
288 -287 0
288 -77 0
286 -287 -69 0
69 287 0
287 -286 0
286 67 66 65 64 0
-67 -286 0
-66 -286 0
-65 -286 0
-64 -286 0
290 74 -291 0
291 -290 0
291 -74 0
289 -290 -68 0
68 290 0
290 -289 0
289 67 66 65 64 0
-67 -289 0
-66 -289 0
-65 -289 0
-64 -289 0
292 78 -293 0
293 -292 0
293 -78 0
99 -292 -98 -100 0
98 292 0
292 -99 0
100 292 0
294 295 -296 0
296 -294 0
296 -295 0
98 -294 -99 -100 0
294 -98 0
99 294 0
100 294 0
295 -79 -75 0
79 -295 0
75 -295 0
297 76 -298 0
298 -297 0
298 -76 0
-297 -98 -99 -100 0
98 297 0
99 297 0
100 297 0
-299 -77 -79 0
77 299 0
79 299 0
302 311 -312 0
312 -302 0
312 -311 0
302 -300 -301 0
300 -302 0
301 -302 0
101 -300 -75 -102 0
75 300 0
300 -101 0
102 300 0
-301 -74 -101 -102 0
74 301 0
101 301 0
102 301 0
311 -305 -308 -309 -310 0
305 -311 0
308 -311 0
309 -311 0
310 -311 0
303 304 -305 0
305 -303 0
305 -304 0
-303 -101 -102 0
101 303 0
102 303 0
304 -82 -80 0
82 -304 0
80 -304 0
307 81 -308 0
308 -307 0
308 -81 0
306 -307 -76 0
76 307 0
307 -306 0
306 75 74 0
-75 -306 0
-74 -306 0
-309 -81 -82 0
81 309 0
82 309 0
310 0
-315 -71 -73 0
71 315 0
73 315 0
-316 -70 -72 0
70 316 0
72 316 0
-319 -61 -63 0
61 319 0
63 319 0
-320 -60 -62 0
60 320 0
62 320 0
328 332 -333 0
333 -328 0
333 -332 0
327 -328 -4 0
4 328 0
328 -327 0
327 3 2 0
-3 -327 0
-2 -327 0
332 -15 -329 -330 -331 0
15 -332 0
329 -332 0
330 -332 0
331 -332 0
5 11 -329 0
329 -5 0
329 -11 0
10 12 -330 0
330 -10 0
330 -12 0
7 13 -331 0
331 -7 0
331 -13 0
334 335 -336 0
336 -334 0
336 -335 0
84 -334 -85 0
334 -84 0
85 334 0
335 -14 -8 -9 0
14 -335 0
8 -335 0
9 -335 0
337 338 -339 0
339 -337 0
339 -338 0
-337 -84 -85 0
84 337 0
85 337 0
338 -7 -6 0
7 -338 0
6 -338 0
